Maximize
  0.00161084357070695 Z_345_1_0 + 5.1643746344063397e-04 Z_345_1_1
   + 0.3080389077242555 Z_345_1_2 + 0.00496512722269798 Z_345_1_3
   + 0.584868684018899 Z_345_1_4 + 7.8620538404817672e-04 Z_345_0_0
   + 0.000848177 Z_345_0_1 + 0.00372922617854128 Z_345_0_2
   + 0.0641287550601758 Z_345_0_3 + 0.8305076363313181 Z_345_0_4
   + 0.00482288422878988 Z_345_2_0 + 0.056055551159705 Z_345_2_1
   + 0.00232815641775239 Z_345_2_2 + 0.0478981765018925 Z_345_2_3
   + 0.78889523169186 Z_345_2_4 + 7.8620538404817672e-04 Z_345_3_0
   + 0.000848177 Z_345_3_1 + 0.00372922617854128 Z_345_3_2
   + 0.0641287550601758 Z_345_3_3 + 0.8305076363313181 Z_345_3_4
   + 0.0312260972816598 Z_453_2_0 + 0.2631307747913684 Z_453_2_1
   + 0.00588842776261762 Z_453_2_2 + 0.0701434217786074 Z_453_2_3
   + 0.5296112783857468 Z_453_2_4 + 0.0164436037557264 Z_453_0_0
   + 0.0112572752890934 Z_453_0_1 + 0.013575729647298 Z_453_0_2
   + 0.00577801471541386 Z_453_0_3 + 0.8529453765924683 Z_453_0_4
   + 0.00844128746688638 Z_453_1_0 + 0.00812839976767272 Z_453_1_1
   + 0.00492397415874757 Z_453_1_2 + 0.0107914504521458 Z_453_1_3
   + 0.8677148881545477 Z_453_1_4 + 0.00201037981837448 Z_453_3_0
   + 0.00183709731105421 Z_453_3_1 + 0.3095952807316501 Z_453_3_2
   + 5.26982e-05 Z_453_3_3 + 0.5865045438892484 Z_453_3_4
   + 2.4434484465666321e-04 Z_453_12_0 + 0.0418826296751645 Z_453_12_1
   + 0.8374426129854166 Z_453_12_2 + 7.3794081171127542e-04 Z_453_12_3
   + 0.0196924716830511 Z_453_12_4 + 1.5569514131627665e-04 Z_352_0_0
   + 0.00145412197605996 Z_352_0_1 + 0.0402004924580281 Z_352_0_2
   + 0.8051826133042277 Z_352_0_3 + 0.0530070771203681 Z_352_0_4
   + 0.00814311244554909 Z_290_0_0 + 0.0595219350673583 Z_290_0_1
   + 0.00282101539434518 Z_290_0_2 + 0.0417894166341794 Z_290_0_3
   + 0.7877245204585681 Z_290_0_4 + 0.00196671202337884 Z_558_1_0
   + 3.032204800222549e-04 Z_558_1_1 + 0.0541075459802344 Z_558_1_2
   + 0.02350073667634 Z_558_1_3 + 0.8201217848400245 Z_558_1_4
   + 0.0109170277181876 Z_558_2_0 + 0.00720343568562703 Z_558_2_1
   + 0.00187644969092513 Z_558_2_2 + 0.0117221033504458 Z_558_2_3
   + 0.8682809835548144 Z_558_2_4 + 1.2718416993904203e-04 Z_558_4_0
   + 0.00189708852308534 Z_558_4_1 + 0.0097788509487099 Z_558_4_2
   + 0.0389977960409147 Z_558_4_3 + 0.8491990803173511 Z_558_4_4
   + 8.34788e-05 Z_558_0_0 + 4.9235669336709453e-04 Z_558_0_1
   + 0.00248253729891214 Z_558_0_2 + 0.0123414172599583 Z_558_0_3
   + 0.884600209945445 Z_558_0_4 + 0.00265711557159604 Z_558_6_0
   + 0.0254442615507415 Z_558_6_1 + 1.6526233193810903e-04 Z_558_6_2
   + 0.2474109105082229 Z_558_6_3 + 0.6243224500375014 Z_558_6_4
   + 0.00265711557159604 Z_558_5_0 + 0.0254442615507415 Z_558_5_1
   + 1.6526233193810903e-04 Z_558_5_2 + 0.2474109105082229 Z_558_5_3
   + 0.6243224500375014 Z_558_5_4 + 0.029570590875719 Z_558_3_0
   + 0.0472749902888404 Z_558_3_1 + 0.0101804755749087 Z_558_3_2
   + 0.6437413988135618 Z_558_3_3 + 0.1692325444469698 Z_558_3_4
   + 0.00106393212827007 Z_362_0_0 + 0.00138048741363513 Z_362_0_1
   + 0.0316780398516605 Z_362_0_2 + 0.7289786539204359 Z_362_0_3
   + 0.1368988866859985 Z_362_0_4 + 4.12589e-05 Z_460_0_0
   + 0.00131676318467128 Z_460_0_1 + 0.0884821775792626 Z_460_0_2
   + 0.7613379542211786 Z_460_0_3 + 0.0488218461352177 Z_460_0_4
   + 0.00223711868473576 Z_495_0_0 + 7.3860949464990729e-04 Z_495_0_1
   + 0.0178650431024491 Z_495_0_2 + 0.7337253020125521 Z_495_0_3
   + 0.1454339267056131 Z_495_0_4 + 1.3578221646767328e-04 Z_229_0_0
   + 0.00358587540208708 Z_229_0_1 + 0.8270980224762494 Z_229_0_2
   + 0.0013875583183225 Z_229_0_3 + 0.0677927615868733 Z_229_0_4
   + 0.0135152600684217 Z_754_0_0 + 0.00395013368744295 Z_754_0_1
   + 0.0152156618500182 Z_754_0_2 + 0.2040311553042418 Z_754_0_3
   + 0.6632877890898754 Z_754_0_4 + 5.4295057659608506e-04 Z_347_0_0
   + 0.00335667050104141 Z_347_0_1 + 0.0358160710573293 Z_347_0_2
   + 0.7522152158289267 Z_347_0_3 + 0.1080690920361066 Z_347_0_4
   + 9.2643428660070168e-04 Z_489_0_0 + 0.00168226571385579 Z_489_0_1
   + 0.0428181484054159 Z_489_0_2 + 0.7336755467641382 Z_489_0_3
   + 0.1208976048299894 Z_489_0_4 + 3.68974e-05 Z_248_0_0
   + 0.00874567119487266 Z_248_0_1 + 0.1535401396577987 Z_248_0_2
   + 0.7178333858105997 Z_248_0_3 + 0.0198439059173314 Z_248_0_4
   + 1.2567569840406332e-04 Z_651_0_0 + 0.00203269733421692 Z_651_0_1
   + 0.4413139523329058 Z_651_0_2 + 0.0152671049721564 Z_651_0_3
   + 0.441260569662317 Z_651_0_4 + 4.06952576069006e-04 Z_519_3_0
   + 0.00249218314435718 Z_519_3_1 + 0.0276961302311831 Z_519_3_2
   + 0.6965661914998177 Z_519_3_3 + 0.172838542548573 Z_519_3_4
   + 0.0434445884277931 Z_519_8_0 + 0.0240097630405204 Z_519_8_1
   + 0.0112782238514494 Z_519_8_2 + 0.1037203441863022 Z_519_8_3
   + 0.7175470804939349 Z_519_8_4 + 0.00150254418566683 Z_519_1_0
   + 3.8035970624698931e-04 Z_519_1_1 + 0.3394434890458176 Z_519_1_2
   + 0.00168137209466575 Z_519_1_3 + 0.556992234967603 Z_519_1_4
   + 0.0107160771652567 Z_519_0_0 + 0.00182620747297284 Z_519_0_1
   + 0.1197747806970612 Z_519_0_2 + 0.1299893799517027 Z_519_0_3
   + 0.6376935547130066 Z_519_0_4 + 0.00266824020417357 Z_519_2_0
   + 0.0021796732560739 Z_519_2_1 + 0.00692899488315988 Z_519_2_2
   + 0.00685272974945135 Z_519_2_3 + 0.8813703619071414 Z_519_2_4
   + 0.0434445884277931 Z_519_7_0 + 0.0240097630405204 Z_519_7_1
   + 0.0112782238514494 Z_519_7_2 + 0.1037203441863022 Z_519_7_3
   + 0.7175470804939349 Z_519_7_4 + 4.06952576069006e-04 Z_519_4_0
   + 0.00249218314435718 Z_519_4_1 + 0.0276961302311831 Z_519_4_2
   + 0.6965661914998177 Z_519_4_3 + 0.172838542548573 Z_519_4_4
   + 0.0865478227482802 Z_519_6_0 + 0.0458745920789454 Z_519_6_1
   + 0.0113826972311645 Z_519_6_2 + 0.0202111354437263 Z_519_6_3
   + 0.7359837524978835 Z_519_6_4 + 0.0191211951228758 Z_519_5_0
   + 0.0323835545483687 Z_519_5_1 + 0.0110071340566545 Z_519_5_2
   + 0.0260402822456698 Z_519_5_3 + 0.8114478340264313 Z_519_5_4
   + 0.00257880909340338 Z_494_0_0 + 9.9868388420739653e-04 Z_494_0_1
   + 0.0424765303121336 Z_494_0_2 + 0.7448652621884597 Z_494_0_3
   + 0.109080714521796 Z_494_0_4 + 0.00399670551095037 Z_354_0_0
   + 0.00182466362213074 Z_354_0_1 + 0.0026515172069251 Z_354_0_2
   + 0.5092303057762553 Z_354_0_3 + 0.3822968078837385 Z_354_0_4
   + 2.6503870327432868e-04 Z_391_0_0 + 0.00375109478101057 Z_391_0_1
   + 0.8082789934389488 Z_391_0_2 + 0.00219218133900898 Z_391_0_3
   + 0.0855126917377573 Z_391_0_4 + 2.0087841512201948e-04 Z_126_0_0
   + 0.00217883100653332 Z_126_0_1 + 0.2220807647367882 Z_126_0_2
   + 0.492333955146152 Z_126_0_3 + 0.1832055706954043 Z_126_0_4
   + 0.0437347752987466 Z_560_1_0 + 0.0133060293719286 Z_560_1_1
   + 0.0320914151572465 Z_560_1_2 + 0.0281294478295878 Z_560_1_3
   + 0.7827383323424906 Z_560_1_4 + 3.0857027544175532e-04 Z_560_18_0
   + 0.012314384762794 Z_560_18_1 + 0.8409400167511383 Z_560_18_2
   + 0.00216461268683071 Z_560_18_3 + 0.0442724155237952 Z_560_18_4
   + 0.0414815382828148 Z_560_5_0 + 0.0103709207223175 Z_560_5_1
   + 0.0220382512843099 Z_560_5_2 + 0.0190762910673145 Z_560_5_3
   + 0.8070329986432433 Z_560_5_4 + 0.0184997127508678 Z_560_2_0
   + 0.00560945613338657 Z_560_2_1 + 0.0790075585117452 Z_560_2_2
   + 0.0225114417624037 Z_560_2_3 + 0.7743718308415966 Z_560_2_4
   + 0.00146068297936698 Z_560_0_0 + 0.00595741500677806 Z_560_0_1
   + 0.020217815633852 Z_560_0_2 + 2.0700360484883018e-04 Z_560_0_3
   + 0.8721570827751541 Z_560_0_4 + 0.00210865710194732 Z_560_3_0
   + 0.0139350310608631 Z_560_3_1 + 0.196171403168741 Z_560_3_2
   + 0.086051360852159 Z_560_3_3 + 0.6017335478162896 Z_560_3_4
   + 0.0414815382828148 Z_560_4_0 + 0.0103709207223175 Z_560_4_1
   + 0.0220382512843099 Z_560_4_2 + 0.0190762910673145 Z_560_4_3
   + 0.8070329986432433 Z_560_4_4 + 0.00152068885178013 Z_408_0_0
   + 4.4682746775376759e-04 Z_408_0_1 + 0.0352006465110433 Z_408_0_2
   + 0.6289434307646706 Z_408_0_3 + 0.2338884064047521 Z_408_0_4
   + 2.3899349245499885e-04 Z_665_0_0 + 7.7040569619932762e-04 Z_665_0_1
   + 0.734822713630924 Z_665_0_2 + 0.00650029611313581 Z_665_0_3
   + 0.157667591067286 Z_665_0_4 + 0.00709151439871591 Z_327_0_0
   + 0.00468996646954882 Z_327_0_1 + 0.0220184890549959 Z_327_0_2
   + 0.5434732184061748 Z_327_0_3 + 0.3227268116705647 Z_327_0_4
Subject To
 constraint1_3451: Z_345_1_0 + Z_345_1_1 + Z_345_1_2 + Z_345_1_3
   + Z_345_1_4 <= 1
 constraint1_3450: Z_345_0_0 + Z_345_0_1 + Z_345_0_2 + Z_345_0_3
   + Z_345_0_4 <= 1
 constraint1_3452: Z_345_2_0 + Z_345_2_1 + Z_345_2_2 + Z_345_2_3
   + Z_345_2_4 <= 1
 constraint1_3453: Z_345_3_0 + Z_345_3_1 + Z_345_3_2 + Z_345_3_3
   + Z_345_3_4 <= 1
 constraint1_4532: Z_453_2_0 + Z_453_2_1 + Z_453_2_2 + Z_453_2_3
   + Z_453_2_4 <= 1
 constraint1_4530: Z_453_0_0 + Z_453_0_1 + Z_453_0_2 + Z_453_0_3
   + Z_453_0_4 <= 1
 constraint1_4531: Z_453_1_0 + Z_453_1_1 + Z_453_1_2 + Z_453_1_3
   + Z_453_1_4 <= 1
 constraint1_4533: Z_453_3_0 + Z_453_3_1 + Z_453_3_2 + Z_453_3_3
   + Z_453_3_4 <= 1
 constraint1_45312: Z_453_12_0 + Z_453_12_1 + Z_453_12_2 + Z_453_12_3
   + Z_453_12_4 <= 1
 constraint1_3520: Z_352_0_0 + Z_352_0_1 + Z_352_0_2 + Z_352_0_3
   + Z_352_0_4 <= 1
 constraint1_2900: Z_290_0_0 + Z_290_0_1 + Z_290_0_2 + Z_290_0_3
   + Z_290_0_4 <= 1
 constraint1_5581: Z_558_1_0 + Z_558_1_1 + Z_558_1_2 + Z_558_1_3
   + Z_558_1_4 <= 1
 constraint1_5582: Z_558_2_0 + Z_558_2_1 + Z_558_2_2 + Z_558_2_3
   + Z_558_2_4 <= 1
 constraint1_5584: Z_558_4_0 + Z_558_4_1 + Z_558_4_2 + Z_558_4_3
   + Z_558_4_4 <= 1
 constraint1_5580: Z_558_0_0 + Z_558_0_1 + Z_558_0_2 + Z_558_0_3
   + Z_558_0_4 <= 1
 constraint1_5586: Z_558_6_0 + Z_558_6_1 + Z_558_6_2 + Z_558_6_3
   + Z_558_6_4 <= 1
 constraint1_5585: Z_558_5_0 + Z_558_5_1 + Z_558_5_2 + Z_558_5_3
   + Z_558_5_4 <= 1
 constraint1_5583: Z_558_3_0 + Z_558_3_1 + Z_558_3_2 + Z_558_3_3
   + Z_558_3_4 <= 1
 constraint1_3620: Z_362_0_0 + Z_362_0_1 + Z_362_0_2 + Z_362_0_3
   + Z_362_0_4 <= 1
 constraint1_4600: Z_460_0_0 + Z_460_0_1 + Z_460_0_2 + Z_460_0_3
   + Z_460_0_4 <= 1
 constraint1_4950: Z_495_0_0 + Z_495_0_1 + Z_495_0_2 + Z_495_0_3
   + Z_495_0_4 <= 1
 constraint1_2290: Z_229_0_0 + Z_229_0_1 + Z_229_0_2 + Z_229_0_3
   + Z_229_0_4 <= 1
 constraint1_7540: Z_754_0_0 + Z_754_0_1 + Z_754_0_2 + Z_754_0_3
   + Z_754_0_4 <= 1
 constraint1_3470: Z_347_0_0 + Z_347_0_1 + Z_347_0_2 + Z_347_0_3
   + Z_347_0_4 <= 1
 constraint1_4890: Z_489_0_0 + Z_489_0_1 + Z_489_0_2 + Z_489_0_3
   + Z_489_0_4 <= 1
 constraint1_2480: Z_248_0_0 + Z_248_0_1 + Z_248_0_2 + Z_248_0_3
   + Z_248_0_4 <= 1
 constraint1_6510: Z_651_0_0 + Z_651_0_1 + Z_651_0_2 + Z_651_0_3
   + Z_651_0_4 <= 1
 constraint1_5193: Z_519_3_0 + Z_519_3_1 + Z_519_3_2 + Z_519_3_3
   + Z_519_3_4 <= 1
 constraint1_5198: Z_519_8_0 + Z_519_8_1 + Z_519_8_2 + Z_519_8_3
   + Z_519_8_4 <= 1
 constraint1_5191: Z_519_1_0 + Z_519_1_1 + Z_519_1_2 + Z_519_1_3
   + Z_519_1_4 <= 1
 constraint1_5190: Z_519_0_0 + Z_519_0_1 + Z_519_0_2 + Z_519_0_3
   + Z_519_0_4 <= 1
 constraint1_5192: Z_519_2_0 + Z_519_2_1 + Z_519_2_2 + Z_519_2_3
   + Z_519_2_4 <= 1
 constraint1_5197: Z_519_7_0 + Z_519_7_1 + Z_519_7_2 + Z_519_7_3
   + Z_519_7_4 <= 1
 constraint1_5194: Z_519_4_0 + Z_519_4_1 + Z_519_4_2 + Z_519_4_3
   + Z_519_4_4 <= 1
 constraint1_5196: Z_519_6_0 + Z_519_6_1 + Z_519_6_2 + Z_519_6_3
   + Z_519_6_4 <= 1
 constraint1_5195: Z_519_5_0 + Z_519_5_1 + Z_519_5_2 + Z_519_5_3
   + Z_519_5_4 <= 1
 constraint1_4940: Z_494_0_0 + Z_494_0_1 + Z_494_0_2 + Z_494_0_3
   + Z_494_0_4 <= 1
 constraint1_3540: Z_354_0_0 + Z_354_0_1 + Z_354_0_2 + Z_354_0_3
   + Z_354_0_4 <= 1
 constraint1_3910: Z_391_0_0 + Z_391_0_1 + Z_391_0_2 + Z_391_0_3
   + Z_391_0_4 <= 1
 constraint1_1260: Z_126_0_0 + Z_126_0_1 + Z_126_0_2 + Z_126_0_3
   + Z_126_0_4 <= 1
 constraint1_5601: Z_560_1_0 + Z_560_1_1 + Z_560_1_2 + Z_560_1_3
   + Z_560_1_4 <= 1
 constraint1_56018: Z_560_18_0 + Z_560_18_1 + Z_560_18_2 + Z_560_18_3
   + Z_560_18_4 <= 1
 constraint1_5605: Z_560_5_0 + Z_560_5_1 + Z_560_5_2 + Z_560_5_3
   + Z_560_5_4 <= 1
 constraint1_5602: Z_560_2_0 + Z_560_2_1 + Z_560_2_2 + Z_560_2_3
   + Z_560_2_4 <= 1
 constraint1_5600: Z_560_0_0 + Z_560_0_1 + Z_560_0_2 + Z_560_0_3
   + Z_560_0_4 <= 1
 constraint1_5603: Z_560_3_0 + Z_560_3_1 + Z_560_3_2 + Z_560_3_3
   + Z_560_3_4 <= 1
 constraint1_5604: Z_560_4_0 + Z_560_4_1 + Z_560_4_2 + Z_560_4_3
   + Z_560_4_4 <= 1
 constraint1_4080: Z_408_0_0 + Z_408_0_1 + Z_408_0_2 + Z_408_0_3
   + Z_408_0_4 <= 1
 constraint1_6650: Z_665_0_0 + Z_665_0_1 + Z_665_0_2 + Z_665_0_3
   + Z_665_0_4 <= 1
 constraint1_3270: Z_327_0_0 + Z_327_0_1 + Z_327_0_2 + Z_327_0_3
   + Z_327_0_4 <= 1
 constraint2_3450: Z_345_1_0 + Z_345_0_0 + Z_345_2_0 + Z_345_3_0 <= 1
 constraint2_3451: Z_345_1_1 + Z_345_0_1 + Z_345_2_1 + Z_345_3_1 <= 1
 constraint2_3452: Z_345_1_2 + Z_345_0_2 + Z_345_2_2 + Z_345_3_2 <= 1
 constraint2_3453: Z_345_1_3 + Z_345_0_3 + Z_345_2_3 + Z_345_3_3 <= 1
 constraint2_4530: Z_453_2_0 + Z_453_0_0 + Z_453_1_0 + Z_453_3_0
   + Z_453_12_0 <= 1
 constraint2_4531: Z_453_2_1 + Z_453_0_1 + Z_453_1_1 + Z_453_3_1
   + Z_453_12_1 <= 1
 constraint2_4532: Z_453_2_2 + Z_453_0_2 + Z_453_1_2 + Z_453_3_2
   + Z_453_12_2 <= 1
 constraint2_4533: Z_453_2_3 + Z_453_0_3 + Z_453_1_3 + Z_453_3_3
   + Z_453_12_3 <= 1
 constraint2_3520: Z_352_0_0 <= 1
 constraint2_3521: Z_352_0_1 <= 1
 constraint2_3522: Z_352_0_2 <= 1
 constraint2_3523: Z_352_0_3 <= 1
 constraint2_2900: Z_290_0_0 <= 1
 constraint2_2901: Z_290_0_1 <= 1
 constraint2_2902: Z_290_0_2 <= 1
 constraint2_2903: Z_290_0_3 <= 1
 constraint2_5580: Z_558_1_0 + Z_558_2_0 + Z_558_4_0 + Z_558_0_0
   + Z_558_6_0 + Z_558_5_0 + Z_558_3_0 <= 1
 constraint2_5581: Z_558_1_1 + Z_558_2_1 + Z_558_4_1 + Z_558_0_1
   + Z_558_6_1 + Z_558_5_1 + Z_558_3_1 <= 1
 constraint2_5582: Z_558_1_2 + Z_558_2_2 + Z_558_4_2 + Z_558_0_2
   + Z_558_6_2 + Z_558_5_2 + Z_558_3_2 <= 1
 constraint2_5583: Z_558_1_3 + Z_558_2_3 + Z_558_4_3 + Z_558_0_3
   + Z_558_6_3 + Z_558_5_3 + Z_558_3_3 <= 1
 constraint2_3620: Z_362_0_0 <= 1
 constraint2_3621: Z_362_0_1 <= 1
 constraint2_3622: Z_362_0_2 <= 1
 constraint2_3623: Z_362_0_3 <= 1
 constraint2_4600: Z_460_0_0 <= 1
 constraint2_4601: Z_460_0_1 <= 1
 constraint2_4602: Z_460_0_2 <= 1
 constraint2_4603: Z_460_0_3 <= 1
 constraint2_4950: Z_495_0_0 <= 1
 constraint2_4951: Z_495_0_1 <= 1
 constraint2_4952: Z_495_0_2 <= 1
 constraint2_4953: Z_495_0_3 <= 1
 constraint2_2290: Z_229_0_0 <= 1
 constraint2_2291: Z_229_0_1 <= 1
 constraint2_2292: Z_229_0_2 <= 1
 constraint2_2293: Z_229_0_3 <= 1
 constraint2_7540: Z_754_0_0 <= 1
 constraint2_7541: Z_754_0_1 <= 1
 constraint2_7542: Z_754_0_2 <= 1
 constraint2_7543: Z_754_0_3 <= 1
 constraint2_3470: Z_347_0_0 <= 1
 constraint2_3471: Z_347_0_1 <= 1
 constraint2_3472: Z_347_0_2 <= 1
 constraint2_3473: Z_347_0_3 <= 1
 constraint2_4890: Z_489_0_0 <= 1
 constraint2_4891: Z_489_0_1 <= 1
 constraint2_4892: Z_489_0_2 <= 1
 constraint2_4893: Z_489_0_3 <= 1
 constraint2_2480: Z_248_0_0 <= 1
 constraint2_2481: Z_248_0_1 <= 1
 constraint2_2482: Z_248_0_2 <= 1
 constraint2_2483: Z_248_0_3 <= 1
 constraint2_6510: Z_651_0_0 <= 1
 constraint2_6511: Z_651_0_1 <= 1
 constraint2_6512: Z_651_0_2 <= 1
 constraint2_6513: Z_651_0_3 <= 1
 constraint2_5190: Z_519_3_0 + Z_519_8_0 + Z_519_1_0 + Z_519_0_0
   + Z_519_2_0 + Z_519_7_0 + Z_519_4_0 + Z_519_6_0 + Z_519_5_0 <= 1
 constraint2_5191: Z_519_3_1 + Z_519_8_1 + Z_519_1_1 + Z_519_0_1
   + Z_519_2_1 + Z_519_7_1 + Z_519_4_1 + Z_519_6_1 + Z_519_5_1 <= 1
 constraint2_5192: Z_519_3_2 + Z_519_8_2 + Z_519_1_2 + Z_519_0_2
   + Z_519_2_2 + Z_519_7_2 + Z_519_4_2 + Z_519_6_2 + Z_519_5_2 <= 1
 constraint2_5193: Z_519_3_3 + Z_519_8_3 + Z_519_1_3 + Z_519_0_3
   + Z_519_2_3 + Z_519_7_3 + Z_519_4_3 + Z_519_6_3 + Z_519_5_3 <= 1
 constraint2_4940: Z_494_0_0 <= 1
 constraint2_4941: Z_494_0_1 <= 1
 constraint2_4942: Z_494_0_2 <= 1
 constraint2_4943: Z_494_0_3 <= 1
 constraint2_3540: Z_354_0_0 <= 1
 constraint2_3541: Z_354_0_1 <= 1
 constraint2_3542: Z_354_0_2 <= 1
 constraint2_3543: Z_354_0_3 <= 1
 constraint2_3910: Z_391_0_0 <= 1
 constraint2_3911: Z_391_0_1 <= 1
 constraint2_3912: Z_391_0_2 <= 1
 constraint2_3913: Z_391_0_3 <= 1
 constraint2_1260: Z_126_0_0 <= 1
 constraint2_1261: Z_126_0_1 <= 1
 constraint2_1262: Z_126_0_2 <= 1
 constraint2_1263: Z_126_0_3 <= 1
 constraint2_5600: Z_560_1_0 + Z_560_18_0 + Z_560_5_0 + Z_560_2_0
   + Z_560_0_0 + Z_560_3_0 + Z_560_4_0 <= 1
 constraint2_5601: Z_560_1_1 + Z_560_18_1 + Z_560_5_1 + Z_560_2_1
   + Z_560_0_1 + Z_560_3_1 + Z_560_4_1 <= 1
 constraint2_5602: Z_560_1_2 + Z_560_18_2 + Z_560_5_2 + Z_560_2_2
   + Z_560_0_2 + Z_560_3_2 + Z_560_4_2 <= 1
 constraint2_5603: Z_560_1_3 + Z_560_18_3 + Z_560_5_3 + Z_560_2_3
   + Z_560_0_3 + Z_560_3_3 + Z_560_4_3 <= 1
 constraint2_4080: Z_408_0_0 <= 1
 constraint2_4081: Z_408_0_1 <= 1
 constraint2_4082: Z_408_0_2 <= 1
 constraint2_4083: Z_408_0_3 <= 1
 constraint2_6650: Z_665_0_0 <= 1
 constraint2_6651: Z_665_0_1 <= 1
 constraint2_6652: Z_665_0_2 <= 1
 constraint2_6653: Z_665_0_3 <= 1
 constraint2_3300: <= 1
 constraint2_3301: <= 1
 constraint2_3302: <= 1
 constraint2_3303: <= 1
 constraint2_90: <= 1
 constraint2_91: <= 1
 constraint2_92: <= 1
 constraint2_93: <= 1
 constraint2_3270: Z_327_0_0 <= 1
 constraint2_3271: Z_327_0_1 <= 1
 constraint2_3272: Z_327_0_2 <= 1
 constraint2_3273: Z_327_0_3 <= 1
Bounds
Binaries
 Z_345_1_0 Z_345_1_1 Z_345_1_2 Z_345_1_3 Z_345_1_4 Z_345_0_0 Z_345_0_1
 Z_345_0_2 Z_345_0_3 Z_345_0_4 Z_345_2_0 Z_345_2_1 Z_345_2_2 Z_345_2_3
 Z_345_2_4 Z_345_3_0 Z_345_3_1 Z_345_3_2 Z_345_3_3 Z_345_3_4 Z_453_2_0
 Z_453_2_1 Z_453_2_2 Z_453_2_3 Z_453_2_4 Z_453_0_0 Z_453_0_1 Z_453_0_2
 Z_453_0_3 Z_453_0_4 Z_453_1_0 Z_453_1_1 Z_453_1_2 Z_453_1_3 Z_453_1_4
 Z_453_3_0 Z_453_3_1 Z_453_3_2 Z_453_3_3 Z_453_3_4 Z_453_12_0 Z_453_12_1
 Z_453_12_2 Z_453_12_3 Z_453_12_4 Z_352_0_0 Z_352_0_1 Z_352_0_2 Z_352_0_3
 Z_352_0_4 Z_290_0_0 Z_290_0_1 Z_290_0_2 Z_290_0_3 Z_290_0_4 Z_558_1_0
 Z_558_1_1 Z_558_1_2 Z_558_1_3 Z_558_1_4 Z_558_2_0 Z_558_2_1 Z_558_2_2
 Z_558_2_3 Z_558_2_4 Z_558_4_0 Z_558_4_1 Z_558_4_2 Z_558_4_3 Z_558_4_4
 Z_558_0_0 Z_558_0_1 Z_558_0_2 Z_558_0_3 Z_558_0_4 Z_558_6_0 Z_558_6_1
 Z_558_6_2 Z_558_6_3 Z_558_6_4 Z_558_5_0 Z_558_5_1 Z_558_5_2 Z_558_5_3
 Z_558_5_4 Z_558_3_0 Z_558_3_1 Z_558_3_2 Z_558_3_3 Z_558_3_4 Z_362_0_0
 Z_362_0_1 Z_362_0_2 Z_362_0_3 Z_362_0_4 Z_460_0_0 Z_460_0_1 Z_460_0_2
 Z_460_0_3 Z_460_0_4 Z_495_0_0 Z_495_0_1 Z_495_0_2 Z_495_0_3 Z_495_0_4
 Z_229_0_0 Z_229_0_1 Z_229_0_2 Z_229_0_3 Z_229_0_4 Z_754_0_0 Z_754_0_1
 Z_754_0_2 Z_754_0_3 Z_754_0_4 Z_347_0_0 Z_347_0_1 Z_347_0_2 Z_347_0_3
 Z_347_0_4 Z_489_0_0 Z_489_0_1 Z_489_0_2 Z_489_0_3 Z_489_0_4 Z_248_0_0
 Z_248_0_1 Z_248_0_2 Z_248_0_3 Z_248_0_4 Z_651_0_0 Z_651_0_1 Z_651_0_2
 Z_651_0_3 Z_651_0_4 Z_519_3_0 Z_519_3_1 Z_519_3_2 Z_519_3_3 Z_519_3_4
 Z_519_8_0 Z_519_8_1 Z_519_8_2 Z_519_8_3 Z_519_8_4 Z_519_1_0 Z_519_1_1
 Z_519_1_2 Z_519_1_3 Z_519_1_4 Z_519_0_0 Z_519_0_1 Z_519_0_2 Z_519_0_3
 Z_519_0_4 Z_519_2_0 Z_519_2_1 Z_519_2_2 Z_519_2_3 Z_519_2_4 Z_519_7_0
 Z_519_7_1 Z_519_7_2 Z_519_7_3 Z_519_7_4 Z_519_4_0 Z_519_4_1 Z_519_4_2
 Z_519_4_3 Z_519_4_4 Z_519_6_0 Z_519_6_1 Z_519_6_2 Z_519_6_3 Z_519_6_4
 Z_519_5_0 Z_519_5_1 Z_519_5_2 Z_519_5_3 Z_519_5_4 Z_494_0_0 Z_494_0_1
 Z_494_0_2 Z_494_0_3 Z_494_0_4 Z_354_0_0 Z_354_0_1 Z_354_0_2 Z_354_0_3
 Z_354_0_4 Z_391_0_0 Z_391_0_1 Z_391_0_2 Z_391_0_3 Z_391_0_4 Z_126_0_0
 Z_126_0_1 Z_126_0_2 Z_126_0_3 Z_126_0_4 Z_560_1_0 Z_560_1_1 Z_560_1_2
 Z_560_1_3 Z_560_1_4 Z_560_18_0 Z_560_18_1 Z_560_18_2 Z_560_18_3 Z_560_18_4
 Z_560_5_0 Z_560_5_1 Z_560_5_2 Z_560_5_3 Z_560_5_4 Z_560_2_0 Z_560_2_1
 Z_560_2_2 Z_560_2_3 Z_560_2_4 Z_560_0_0 Z_560_0_1 Z_560_0_2 Z_560_0_3
 Z_560_0_4 Z_560_3_0 Z_560_3_1 Z_560_3_2 Z_560_3_3 Z_560_3_4 Z_560_4_0
 Z_560_4_1 Z_560_4_2 Z_560_4_3 Z_560_4_4 Z_408_0_0 Z_408_0_1 Z_408_0_2
 Z_408_0_3 Z_408_0_4 Z_665_0_0 Z_665_0_1 Z_665_0_2 Z_665_0_3 Z_665_0_4
 Z_327_0_0 Z_327_0_1 Z_327_0_2 Z_327_0_3 Z_327_0_4
End
